Results/Experiment 1 Results/Existing Benchmark/RES_60/i-60-100-12.txt
solutions: 2 nodes: 5  modelTime: 138  solveTime: 21  totalTime: 170  modelSize: 7853  readTime: 11 matchingSize: 30
