Results/Experiment 2 Results/Existing Benchmark/i-60-100-12.lp
clingo version 5.4.0
Reading from tempSRTISolver.lp ...
Solving...
Answer: 1
matched(5,2) matched(40,3) matched(26,4) matched(2,5) matched(25,6) matched(54,7) matched(19,8) matched(55,9) matched(52,10) matched(43,11) matched(21,12) matched(32,13) matched(44,14) matched(22,15) matched(1,16) matched(18,17) matched(17,18) matched(8,19) matched(42,20) matched(12,21) matched(15,22) matched(28,23) matched(58,24) matched(6,25) matched(4,26) matched(49,27) matched(23,28) matched(33,29) matched(50,30) matched(60,31) matched(13,32) matched(29,33) matched(39,34) matched(36,35) matched(35,36) matched(53,37) matched(47,38) matched(34,39) matched(3,40) matched(59,41) matched(20,42) matched(11,43) matched(14,44) matched(57,45) matched(56,46) matched(38,47) matched(51,48) matched(27,49) matched(30,50) matched(48,51) matched(10,52) matched(37,53) matched(7,54) matched(9,55) matched(46,56) matched(45,57) matched(24,58) matched(41,59) matched(31,60) matched(16,1)
Optimization: 457
OPTIMUM FOUND

Models       : 1
  Optimum    : yes
Optimization : 457
Calls        : 1
Time         : 7.315s (Solving: 0.40s 1st Model: 0.11s Unsat: 0.29s)
CPU Time     : 7.314s
